************************************************************************
file with basedata            : md349_.bas
initial value random generator: 1663938085
************************************************************************
projects                      :  1
jobs (incl. supersource/sink ):  22
horizon                       :  153
RESOURCES
  - renewable                 :  2   R
  - nonrenewable              :  2   N
  - doubly constrained        :  0   D
************************************************************************
PROJECT INFORMATION:
pronr.  #jobs rel.date duedate tardcost  MPM-Time
    1     20      0       20       16       20
************************************************************************
PRECEDENCE RELATIONS:
jobnr.    #modes  #successors   successors
   1        1          3           2   3   4
   2        3          3           5   8  12
   3        3          2           6  10
   4        3          3           6   7  18
   5        3          3          13  15  16
   6        3          3           9  11  17
   7        3          3          10  13  15
   8        3          2          13  20
   9        3          1          21
  10        3          2          14  19
  11        3          1          19
  12        3          3          14  15  19
  13        3          1          14
  14        3          1          17
  15        3          2          17  20
  16        3          1          18
  17        3          1          21
  18        3          2          20  21
  19        3          1          22
  20        3          1          22
  21        3          1          22
  22        1          0        
************************************************************************
REQUESTS/DURATIONS:
jobnr. mode duration  R 1  R 2  N 1  N 2
------------------------------------------------------------------------
  1      1     0       0    0    0    0
  2      1     4       8    9    4    0
         2     7       4    6    0    8
         3    10       3    4    4    0
  3      1     4       1    7    0    2
         2     5       1    7    2    0
         3     8       1    6    1    0
  4      1     3       7    9    0    2
         2     4       6    9    0    1
         3     9       4    8    0    1
  5      1     7       7    7    0   10
         2     9       5    2    2    0
         3     9       5    3    0    7
  6      1     2       6   10    9    0
         2     3       6    8    5    0
         3     4       4    5    0    2
  7      1     2       8    4    8    0
         2     9       7    3    8    0
         3    10       4    1    7    0
  8      1     1       5   10    6    0
         2     6       4    5    0    4
         3     7       3    1    4    0
  9      1     2       9    3    7    0
         2     5       7    2    5    0
         3     7       5    2    0    1
 10      1     2       7    8    9    0
         2     3       7    5    8    0
         3     7       7    2    6    0
 11      1     4       9    6    7    0
         2     7       7    6    3    0
         3     9       6    4    3    0
 12      1     4      10    7    0    7
         2     6       8    6    0    7
         3     9       7    4    0    7
 13      1     3       8    7    0    5
         2     5       7    4    8    0
         3     9       6    2    0    4
 14      1     2       4    7    7    0
         2     5       2    6    0    7
         3     7       1    1    0    5
 15      1     1       9    2    2    0
         2     2       8    1    0    5
         3     4       7    1    0    3
 16      1     2       7    6    0    6
         2     3       7    5    0    6
         3     5       7    5    9    0
 17      1     2       6    2    7    0
         2     4       3    1    7    0
         3    10       3    1    6    0
 18      1     2       7    9    3    0
         2     2       6    8    0   10
         3     5       6    7    0    6
 19      1     4       8    7    7    0
         2     6       8    5    3    0
         3    10       6    2    2    0
 20      1     1       9    9    0    3
         2     4       9    9   10    0
         3     6       7    8    0    2
 21      1     2       9    3    0    7
         2     5       7    3    0    5
         3     8       5    3    0    4
 22      1     0       0    0    0    0
************************************************************************
RESOURCEAVAILABILITIES:
  R 1  R 2  N 1  N 2
   16   16  107   79
************************************************************************
